Optimal - objective value 8.11940500
      0 r_0                         0                       1
      1 r_1                         1                       1
      2 r_2                         0                       1
      3 r_3                         0                0.985075
      4 r_4                         0                0.985075
      5 r_5                         0                0.985075
      6 r_6                         0                0.970149
      7 r_7                         0                0.970149
      8 r_8                         0                0.970149
      9 r_9                         0                0.955224
     10 r_10                        1                0.940299
     11 r_11                        1                0.925373
     12 r_12                        1                0.835821
     13 r_13                        1                0.820896
     14 r_14                        1                0.820896
     15 r_15                        1                0.820896
     16 b_0                         1                       1
     17 b_1                         0                       1
     18 b_2                         0                       1
     19 b_3                         0                0.985075
     20 b_4                         0                0.985075
     21 b_5                         0                0.985075
     22 b_6                         0                0.970149
     23 b_7                         0                0.970149
     24 b_8                         0                0.970149
     25 b_9                         1                0.955224
     26 b_10                        0                0.940299
     27 b_11                        0                0.925373
     28 b_12                        0                0.835821
     29 b_13                        0                0.820896
     30 b_14                        0                0.820896
     31 b_15                        0                0.820896
